(declare-fun temp1814_2 () (_ BitVec 64))
(declare-fun temp1814_1 () (_ BitVec 64))
(declare-fun temp1814_3 () (_ BitVec 64))
(declare-fun var3344182 () (_ BitVec 64))
(declare-fun var3543260 () (_ BitVec 64))
(declare-fun temp1814_4 () (_ BitVec 64))
(declare-fun var3674455 () (_ BitVec 64))
(declare-fun temp1814_5 () (_ BitVec 64))
(declare-fun var3674456 () (_ BitVec 64))
(declare-fun temp1814_7 () (_ BitVec 64))
(declare-fun temp1814_6 () (_ BitVec 64))
(declare-fun temp1814_8 () (_ BitVec 64))
(declare-fun var4261928 () (_ BitVec 64))
(declare-fun var4261970 () (_ BitVec 64))
(declare-fun var4261915 () (_ BitVec 64))
(declare-fun var4261914 () (_ BitVec 64))
(declare-fun temp1814_9 () (_ BitVec 64))
(declare-fun var4261919 () (_ BitVec 64))
(declare-fun temp1814_10 () (_ BitVec 64))
(declare-fun var4261921 () (_ BitVec 64))
(declare-fun temp1814_11 () (_ BitVec 64))
(declare-fun temp1814_12 () (_ BitVec 64))
(declare-fun var5048526 () (_ BitVec 64))
(declare-fun temp1814_13 () (_ BitVec 64))
(declare-fun temp1814_14 () (_ BitVec 64))
(declare-fun var5048572 () (_ BitVec 64))
(declare-fun var5048603 () (_ BitVec 64))
(declare-fun var5048524 () (_ BitVec 64))
(declare-fun var533040 () (_ BitVec 64))
(declare-fun var533041 () (_ BitVec 64))
(assert (= temp1814_2 #x0000000000000000))
(assert (= temp1814_1 temp1814_2))
(assert (= temp1814_3 #x0000000000000000))
(assert (= var3344182 temp1814_3))
(assert (= var3543260 var3344182))
(assert (= temp1814_4 #x0000000000000000))
(assert (= var3674455 temp1814_4))
(assert (= temp1814_5 #x0000000000000000))
(assert (= var3674456 temp1814_5))
(assert (= temp1814_7 #x0000000000000000))
(assert (= temp1814_6 temp1814_7))
(assert (= temp1814_8 #x0000000000000000))
(assert (= var4261928 temp1814_8))
(assert (= var4261970 var4261928))
(assert (= var4261915 var4261970))
(assert (= var4261914 var4261915))
(assert (= temp1814_9 #x0000000000000001))
(assert (= var4261919 (bvand var4261914 temp1814_9)))
(assert (= temp1814_10 #x0000000000000000))
(assert (= var4261921
   (ite (= var4261919 temp1814_10) #x0000000000000001 #x0000000000000000)))
(assert (= temp1814_11 #x0000000000000001))
(assert (= var4261921 temp1814_11))
(assert (= temp1814_12 #x0000000000000000))
(assert (= var5048526 temp1814_12))
(assert (= temp1814_13 #x0000000000000002))
(assert (= temp1814_14 #x0000000000000000))
(assert (= var5048572 (ite (= var5048526 #x0000000000000001) temp1814_13 temp1814_14)))
(assert (= var5048603 var5048572))
(assert (= var5048524 var5048603))
(assert (= var533040 var5048524))
(assert (= var533041 var533040))
(model-add temp1814_2 () (_ BitVec 64) #x0000000000000000)
(model-add temp1814_1 () (_ BitVec 64) #x0000000000000000)
(model-add temp1814_3 () (_ BitVec 64) #x0000000000000000)
(model-add var3344182 () (_ BitVec 64) #x0000000000000000)
(model-add var3543260 () (_ BitVec 64) #x0000000000000000)
(model-add temp1814_4 () (_ BitVec 64) #x0000000000000000)
(model-add var3674455 () (_ BitVec 64) #x0000000000000000)
(model-add temp1814_5 () (_ BitVec 64) #x0000000000000000)
(model-add var3674456 () (_ BitVec 64) #x0000000000000000)
(model-add temp1814_7 () (_ BitVec 64) #x0000000000000000)
(model-add temp1814_6 () (_ BitVec 64) #x0000000000000000)
(model-add temp1814_8 () (_ BitVec 64) #x0000000000000000)
(model-add var4261928 () (_ BitVec 64) #x0000000000000000)
(model-add var4261970 () (_ BitVec 64) #x0000000000000000)
(model-add var4261915 () (_ BitVec 64) #x0000000000000000)
(model-add var4261914 () (_ BitVec 64) #x0000000000000000)
(model-add temp1814_9 () (_ BitVec 64) #x0000000000000001)
(model-add var4261919 () (_ BitVec 64) #x0000000000000000)
(model-add temp1814_10 () (_ BitVec 64) #x0000000000000000)
(model-add var4261921 () (_ BitVec 64) #x0000000000000001)
(model-add temp1814_11 () (_ BitVec 64) #x0000000000000001)






